(set-info :smt-lib-version 2.6)
(set-logic UF)
(set-info :source |Benchmarks from the paper: "Extending Sledgehammer with SMT Solvers" by Jasmin Blanchette, Sascha Bohme, and Lawrence C. Paulson, CADE 2011.  Translated to SMT2 by Andrew Reynolds and Morgan Deters.|)
(set-info :category "industrial")
(set-info :status unknown)
(declare-sort S1 0)
(declare-sort S2 0)
(declare-sort S3 0)
(declare-sort S4 0)
(declare-sort S5 0)
(declare-sort S6 0)
(declare-sort S7 0)
(declare-sort S8 0)
(declare-sort S9 0)
(declare-sort S10 0)
(declare-sort S11 0)
(declare-sort S12 0)
(declare-sort S13 0)
(declare-sort S14 0)
(declare-sort S15 0)
(declare-sort S16 0)
(declare-sort S17 0)
(declare-sort S18 0)
(declare-sort S19 0)
(declare-sort S20 0)
(declare-sort S21 0)
(declare-sort S22 0)
(declare-sort S23 0)
(declare-sort S24 0)
(declare-fun f1 () S1)
(declare-fun f2 () S1)
(declare-fun f3 (S3 S2) S4)
(declare-fun f4 () S3)
(declare-fun f5 (S5 S4) S4)
(declare-fun f6 (S6 S4) S5)
(declare-fun f7 () S6)
(declare-fun f8 () S6)
(declare-fun f9 (S7 S4) S3)
(declare-fun f10 () S7)
(declare-fun f11 () S4)
(declare-fun f12 () S3)
(declare-fun f13 (S8 S2) S2)
(declare-fun f14 (S9 S2) S8)
(declare-fun f15 () S9)
(declare-fun f16 (S10 S11) S2)
(declare-fun f17 () S10)
(declare-fun f18 (S12 S11) S11)
(declare-fun f19 () S12)
(declare-fun f20 () S12)
(declare-fun f21 () S11)
(declare-fun f22 () S2)
(declare-fun f23 () S2)
(declare-fun f24 () S3)
(declare-fun f25 () S8)
(declare-fun f26 () S3)
(declare-fun f27 () S9)
(declare-fun f28 (S13 S2) S3)
(declare-fun f29 (S14 S3) S13)
(declare-fun f30 (S15 S2) S14)
(declare-fun f31 () S15)
(declare-fun f32 (S16 S17) S4)
(declare-fun f33 (S18 S3) S16)
(declare-fun f34 () S18)
(declare-fun f35 (S2 S2) S17)
(declare-fun f36 () S2)
(declare-fun f37 (S19 S3) S3)
(declare-fun f38 (S20 S2) S19)
(declare-fun f39 () S20)
(declare-fun f40 (S21 S2) S11)
(declare-fun f41 (S22 S11) S21)
(declare-fun f42 () S22)
(declare-fun f43 (S23 S11) S12)
(declare-fun f44 () S23)
(declare-fun f45 () S9)
(declare-fun f46 () S23)
(declare-fun f47 () S12)
(declare-fun f48 () S6)
(declare-fun f49 (S24 S11) S4)
(declare-fun f50 () S24)
(declare-fun f51 () S11)
(declare-fun f52 () S4)
(declare-fun f53 () S2)
(declare-fun f54 () S11)
(assert (not (= f1 f2)))
(assert (forall ((?v0 S2)) (let ((?v_0 (f14 f15 (f16 f17 (f18 f19 (f18 f20 f21)))))) (= (f3 f4 ?v0) (f5 (f6 f7 (f5 (f6 f8 (f3 (f9 f10 (f5 (f6 f7 f11) (f3 f12 (f13 ?v_0 f22)))) f23)) (f3 f24 (f13 f25 (f13 ?v_0 ?v0))))) (f3 (f9 f10 (f3 f12 f22)) (f13 (f14 f15 f23) ?v0)))))))
(assert (forall ((?v0 S2)) (let ((?v_0 (f14 f15 (f16 f17 (f18 f19 (f18 f20 f21)))))) (let ((?v_1 (f13 ?v_0 ?v0))) (= (f3 f26 ?v0) (f5 (f6 f7 (f3 f24 (f13 f25 ?v_1))) (f3 (f9 f10 (f3 f12 (f13 ?v_0 f22))) (f13 (f14 f27 f23) (f13 (f14 f15 f23) ?v_1)))))))))
(assert (forall ((?v0 S2) (?v1 S3) (?v2 S2) (?v3 S2)) (= (f3 (f28 (f29 (f30 f31 ?v0) ?v1) ?v2) ?v3) (f5 (f6 f7 (f3 ?v1 ?v3)) (f3 (f9 f10 (f3 f12 ?v0)) (f13 (f14 f15 ?v2) ?v3))))))
(assert (let ((?v_0 (f35 f36 f22))) (not (= (f32 (f33 f34 f26) ?v_0) (f32 (f33 f34 f4) ?v_0)))))
(assert (= (f3 f12 f36) f11))
(assert (forall ((?v0 S2)) (= (f3 (f9 f10 (f3 f12 ?v0)) ?v0) f11)))
(assert (forall ((?v0 S2) (?v1 S2) (?v2 S2)) (let ((?v_0 (f14 f15 (f16 f17 (f18 f19 (f18 f20 f21))))) (?v_1 (f14 f15 ?v1))) (= (f3 (f9 f10 (f3 f12 (f13 ?v_0 ?v0))) (f13 ?v_1 (f13 ?v_0 ?v2))) (f3 (f9 f10 (f3 f12 ?v0)) (f13 ?v_1 ?v2))))))
(assert (forall ((?v0 S2) (?v1 S3) (?v2 S2)) (= (f3 (f37 (f38 f39 ?v0) ?v1) ?v2) (f32 (f33 f34 (f28 (f29 (f30 f31 ?v0) ?v1) ?v2)) (f35 f36 ?v0)))))
(assert (forall ((?v0 S11) (?v1 S2)) (let ((?v_1 (f16 f17 (f18 f19 (f18 f20 f21)))) (?v_0 (f41 f42 ?v0))) (= (f40 ?v_0 (f13 f25 (f13 (f14 f15 ?v_1) ?v1))) (f18 (f43 f44 ?v0) (f40 (f41 f42 (f40 ?v_0 ?v1)) ?v_1))))))
(assert (forall ((?v0 S2) (?v1 S2)) (let ((?v_1 (f16 f17 (f18 f19 (f18 f20 f21)))) (?v_0 (f14 f45 ?v0))) (= (f13 ?v_0 (f13 f25 (f13 (f14 f15 ?v_1) ?v1))) (f13 (f14 f15 ?v0) (f13 (f14 f45 (f13 ?v_0 ?v1)) ?v_1))))))
(assert (forall ((?v0 S4) (?v1 S2)) (let ((?v_1 (f16 f17 (f18 f19 (f18 f20 f21)))) (?v_0 (f9 f10 ?v0))) (= (f3 ?v_0 (f13 f25 (f13 (f14 f15 ?v_1) ?v1))) (f5 (f6 f8 ?v0) (f3 (f9 f10 (f3 ?v_0 ?v1)) ?v_1))))))
(assert (forall ((?v0 S11) (?v1 S2)) (let ((?v_0 (f41 f42 ?v0))) (let ((?v_1 (f40 ?v_0 ?v1))) (= (f40 ?v_0 (f13 f25 (f13 (f14 f15 (f16 f17 (f18 f19 (f18 f20 f21)))) ?v1))) (f18 (f43 f44 ?v0) (f18 (f43 f44 ?v_1) ?v_1)))))))
(assert (forall ((?v0 S2) (?v1 S2)) (let ((?v_0 (f14 f45 ?v0))) (let ((?v_1 (f13 ?v_0 ?v1))) (= (f13 ?v_0 (f13 f25 (f13 (f14 f15 (f16 f17 (f18 f19 (f18 f20 f21)))) ?v1))) (f13 (f14 f15 ?v0) (f13 (f14 f15 ?v_1) ?v_1)))))))
(assert (forall ((?v0 S4) (?v1 S2)) (let ((?v_0 (f9 f10 ?v0))) (let ((?v_1 (f3 ?v_0 ?v1))) (= (f3 ?v_0 (f13 f25 (f13 (f14 f15 (f16 f17 (f18 f19 (f18 f20 f21)))) ?v1))) (f5 (f6 f8 ?v0) (f5 (f6 f8 ?v_1) ?v_1)))))))
(assert (forall ((?v0 S11) (?v1 S11)) (let ((?v_1 (f18 f19 (f18 f20 f21)))) (let ((?v_0 (f16 f17 ?v_1))) (= (f40 (f41 f42 (f18 (f43 f46 ?v0) ?v1)) ?v_0) (f18 (f43 f46 (f18 (f43 f46 (f40 (f41 f42 ?v0) ?v_0)) (f40 (f41 f42 ?v1) ?v_0))) (f18 (f43 f44 (f18 (f43 f44 (f18 f47 ?v_1)) ?v0)) ?v1)))))))
(assert (forall ((?v0 S4) (?v1 S4)) (let ((?v_1 (f18 f19 (f18 f20 f21)))) (let ((?v_0 (f16 f17 ?v_1))) (= (f3 (f9 f10 (f5 (f6 f48 ?v0) ?v1)) ?v_0) (f5 (f6 f48 (f5 (f6 f48 (f3 (f9 f10 ?v0) ?v_0)) (f3 (f9 f10 ?v1) ?v_0))) (f5 (f6 f8 (f5 (f6 f8 (f49 f50 ?v_1)) ?v0)) ?v1)))))))
(assert (forall ((?v0 S2) (?v1 S2)) (let ((?v_0 (f16 f17 (f18 f19 (f18 f20 f21))))) (= (f13 (f14 f45 (f13 (f14 f27 ?v0) ?v1)) ?v_0) (f13 (f14 f27 (f13 (f14 f27 (f13 (f14 f45 ?v0) ?v_0)) (f13 (f14 f45 ?v1) ?v_0))) (f13 (f14 f15 (f13 (f14 f15 ?v_0) ?v0)) ?v1))))))
(assert (forall ((?v0 S11) (?v1 S2)) (let ((?v_0 (f41 f42 ?v0))) (let ((?v_1 (f40 ?v_0 ?v1))) (= (f40 ?v_0 (f13 (f14 f15 (f16 f17 (f18 f19 (f18 f20 f21)))) ?v1)) (f18 (f43 f44 ?v_1) ?v_1))))))
(assert (forall ((?v0 S2) (?v1 S2)) (let ((?v_0 (f14 f45 ?v0))) (let ((?v_1 (f13 ?v_0 ?v1))) (= (f13 ?v_0 (f13 (f14 f15 (f16 f17 (f18 f19 (f18 f20 f21)))) ?v1)) (f13 (f14 f15 ?v_1) ?v_1))))))
(assert (forall ((?v0 S4) (?v1 S2)) (let ((?v_0 (f9 f10 ?v0))) (let ((?v_1 (f3 ?v_0 ?v1))) (= (f3 ?v_0 (f13 (f14 f15 (f16 f17 (f18 f19 (f18 f20 f21)))) ?v1)) (f5 (f6 f8 ?v_1) ?v_1))))))
(assert (forall ((?v0 S11)) (let ((?v_0 (f18 f47 ?v0))) (= (f40 (f41 f42 ?v_0) (f16 f17 (f18 f19 (f18 f20 f21)))) (f18 (f43 f44 ?v_0) ?v_0)))))
(assert (forall ((?v0 S11)) (let ((?v_0 (f16 f17 ?v0))) (= (f13 (f14 f45 ?v_0) (f16 f17 (f18 f19 (f18 f20 f21)))) (f13 (f14 f15 ?v_0) ?v_0)))))
(assert (forall ((?v0 S11)) (let ((?v_0 (f49 f50 ?v0))) (= (f3 (f9 f10 ?v_0) (f16 f17 (f18 f19 (f18 f20 f21)))) (f5 (f6 f8 ?v_0) ?v_0)))))
(assert (forall ((?v0 S11) (?v1 S11)) (let ((?v_0 (f16 f17 (f18 f19 (f18 f20 f21))))) (= (= (f18 (f43 f46 (f40 (f41 f42 ?v0) ?v_0)) (f40 (f41 f42 ?v1) ?v_0)) f51) (and (= ?v0 f51) (= ?v1 f51))))))
(assert (forall ((?v0 S2)) (= (f13 (f14 f15 ?v0) (f16 f17 (f18 f19 (f18 f20 f21)))) (f13 (f14 f27 ?v0) ?v0))))
(assert (forall ((?v0 S2)) (= (f13 (f14 f15 (f16 f17 (f18 f19 (f18 f20 f21)))) ?v0) (f13 (f14 f27 ?v0) ?v0))))
(assert (forall ((?v0 S11) (?v1 S2)) (let ((?v_1 (f16 f17 (f18 f19 (f18 f20 f21)))) (?v_0 (f41 f42 ?v0))) (= (f40 ?v_0 (f13 (f14 f15 ?v_1) ?v1)) (f40 (f41 f42 (f40 ?v_0 ?v1)) ?v_1)))))
(assert (forall ((?v0 S2) (?v1 S2)) (let ((?v_1 (f16 f17 (f18 f19 (f18 f20 f21)))) (?v_0 (f14 f45 ?v0))) (= (f13 ?v_0 (f13 (f14 f15 ?v_1) ?v1)) (f13 (f14 f45 (f13 ?v_0 ?v1)) ?v_1)))))
(assert (forall ((?v0 S4) (?v1 S2)) (let ((?v_1 (f16 f17 (f18 f19 (f18 f20 f21)))) (?v_0 (f9 f10 ?v0))) (= (f3 ?v_0 (f13 (f14 f15 ?v_1) ?v1)) (f3 (f9 f10 (f3 ?v_0 ?v1)) ?v_1)))))
(assert (forall ((?v0 S2)) (= (f13 (f14 f27 ?v0) (f16 f17 (f18 f19 (f18 f20 f21)))) (f13 f25 (f13 f25 ?v0)))))
(assert (forall ((?v0 S2)) (= (f13 (f14 f27 (f16 f17 (f18 f19 (f18 f20 f21)))) ?v0) (f13 f25 (f13 f25 ?v0)))))
(assert (forall ((?v0 S2)) (not (= (f3 f12 ?v0) f52))))
(assert (forall ((?v0 S11) (?v1 S11) (?v2 S11) (?v3 S11)) (let ((?v_0 (f43 f44 ?v0))) (= (f18 (f43 f44 (f18 ?v_0 ?v1)) (f18 (f43 f44 ?v2) ?v3)) (f18 (f43 f44 (f18 ?v_0 ?v2)) (f18 (f43 f44 ?v1) ?v3))))))
(assert (forall ((?v0 S2) (?v1 S2) (?v2 S2) (?v3 S2)) (let ((?v_0 (f14 f15 ?v0))) (= (f13 (f14 f15 (f13 ?v_0 ?v1)) (f13 (f14 f15 ?v2) ?v3)) (f13 (f14 f15 (f13 ?v_0 ?v2)) (f13 (f14 f15 ?v1) ?v3))))))
(assert (forall ((?v0 S4) (?v1 S4) (?v2 S4) (?v3 S4)) (let ((?v_0 (f6 f8 ?v0))) (= (f5 (f6 f8 (f5 ?v_0 ?v1)) (f5 (f6 f8 ?v2) ?v3)) (f5 (f6 f8 (f5 ?v_0 ?v2)) (f5 (f6 f8 ?v1) ?v3))))))
(assert (forall ((?v0 S11) (?v1 S11) (?v2 S11) (?v3 S11)) (let ((?v_1 (f43 f44 (f18 (f43 f44 ?v0) ?v1))) (?v_0 (f43 f44 ?v2))) (= (f18 ?v_1 (f18 ?v_0 ?v3)) (f18 ?v_0 (f18 ?v_1 ?v3))))))
(assert (forall ((?v0 S2) (?v1 S2) (?v2 S2) (?v3 S2)) (let ((?v_1 (f14 f15 (f13 (f14 f15 ?v0) ?v1))) (?v_0 (f14 f15 ?v2))) (= (f13 ?v_1 (f13 ?v_0 ?v3)) (f13 ?v_0 (f13 ?v_1 ?v3))))))
(assert (forall ((?v0 S4) (?v1 S4) (?v2 S4) (?v3 S4)) (let ((?v_1 (f6 f8 (f5 (f6 f8 ?v0) ?v1))) (?v_0 (f6 f8 ?v2))) (= (f5 ?v_1 (f5 ?v_0 ?v3)) (f5 ?v_0 (f5 ?v_1 ?v3))))))
(assert (forall ((?v0 S11) (?v1 S11) (?v2 S11) (?v3 S11)) (let ((?v_0 (f43 f44 ?v0)) (?v_1 (f18 (f43 f44 ?v2) ?v3))) (= (f18 (f43 f44 (f18 ?v_0 ?v1)) ?v_1) (f18 ?v_0 (f18 (f43 f44 ?v1) ?v_1))))))
(assert (forall ((?v0 S2) (?v1 S2) (?v2 S2) (?v3 S2)) (let ((?v_0 (f14 f15 ?v0)) (?v_1 (f13 (f14 f15 ?v2) ?v3))) (= (f13 (f14 f15 (f13 ?v_0 ?v1)) ?v_1) (f13 ?v_0 (f13 (f14 f15 ?v1) ?v_1))))))
(assert (forall ((?v0 S4) (?v1 S4) (?v2 S4) (?v3 S4)) (let ((?v_0 (f6 f8 ?v0)) (?v_1 (f5 (f6 f8 ?v2) ?v3))) (= (f5 (f6 f8 (f5 ?v_0 ?v1)) ?v_1) (f5 ?v_0 (f5 (f6 f8 ?v1) ?v_1))))))
(assert (forall ((?v0 S11) (?v1 S11) (?v2 S11)) (let ((?v_0 (f43 f44 ?v0))) (= (f18 (f43 f44 (f18 ?v_0 ?v1)) ?v2) (f18 (f43 f44 (f18 ?v_0 ?v2)) ?v1)))))
(assert (forall ((?v0 S2) (?v1 S2) (?v2 S2)) (let ((?v_0 (f14 f15 ?v0))) (= (f13 (f14 f15 (f13 ?v_0 ?v1)) ?v2) (f13 (f14 f15 (f13 ?v_0 ?v2)) ?v1)))))
(assert (forall ((?v0 S4) (?v1 S4) (?v2 S4)) (let ((?v_0 (f6 f8 ?v0))) (= (f5 (f6 f8 (f5 ?v_0 ?v1)) ?v2) (f5 (f6 f8 (f5 ?v_0 ?v2)) ?v1)))))
(assert (forall ((?v0 S11) (?v1 S11) (?v2 S11)) (let ((?v_0 (f43 f44 ?v0))) (= (f18 (f43 f44 (f18 ?v_0 ?v1)) ?v2) (f18 ?v_0 (f18 (f43 f44 ?v1) ?v2))))))
(assert (forall ((?v0 S2) (?v1 S2) (?v2 S2)) (let ((?v_0 (f14 f15 ?v0))) (= (f13 (f14 f15 (f13 ?v_0 ?v1)) ?v2) (f13 ?v_0 (f13 (f14 f15 ?v1) ?v2))))))
(assert (forall ((?v0 S4) (?v1 S4) (?v2 S4)) (let ((?v_0 (f6 f8 ?v0))) (= (f5 (f6 f8 (f5 ?v_0 ?v1)) ?v2) (f5 ?v_0 (f5 (f6 f8 ?v1) ?v2))))))
(assert (forall ((?v0 S11) (?v1 S11) (?v2 S11)) (let ((?v_0 (f43 f44 ?v0))) (= (f18 ?v_0 (f18 (f43 f44 ?v1) ?v2)) (f18 (f43 f44 (f18 ?v_0 ?v1)) ?v2)))))
(assert (forall ((?v0 S2) (?v1 S2) (?v2 S2)) (let ((?v_0 (f14 f15 ?v0))) (= (f13 ?v_0 (f13 (f14 f15 ?v1) ?v2)) (f13 (f14 f15 (f13 ?v_0 ?v1)) ?v2)))))
(assert (forall ((?v0 S4) (?v1 S4) (?v2 S4)) (let ((?v_0 (f6 f8 ?v0))) (= (f5 ?v_0 (f5 (f6 f8 ?v1) ?v2)) (f5 (f6 f8 (f5 ?v_0 ?v1)) ?v2)))))
(assert (forall ((?v0 S11) (?v1 S11) (?v2 S11)) (let ((?v_1 (f43 f44 ?v0)) (?v_0 (f43 f44 ?v1))) (= (f18 ?v_1 (f18 ?v_0 ?v2)) (f18 ?v_0 (f18 ?v_1 ?v2))))))
(assert (forall ((?v0 S2) (?v1 S2) (?v2 S2)) (let ((?v_1 (f14 f15 ?v0)) (?v_0 (f14 f15 ?v1))) (= (f13 ?v_1 (f13 ?v_0 ?v2)) (f13 ?v_0 (f13 ?v_1 ?v2))))))
(assert (forall ((?v0 S4) (?v1 S4) (?v2 S4)) (let ((?v_1 (f6 f8 ?v0)) (?v_0 (f6 f8 ?v1))) (= (f5 ?v_1 (f5 ?v_0 ?v2)) (f5 ?v_0 (f5 ?v_1 ?v2))))))
(assert (forall ((?v0 S11) (?v1 S11)) (= (f18 (f43 f44 ?v0) ?v1) (f18 (f43 f44 ?v1) ?v0))))
(assert (forall ((?v0 S2) (?v1 S2)) (= (f13 (f14 f15 ?v0) ?v1) (f13 (f14 f15 ?v1) ?v0))))
(assert (forall ((?v0 S4) (?v1 S4)) (= (f5 (f6 f8 ?v0) ?v1) (f5 (f6 f8 ?v1) ?v0))))
(assert (forall ((?v0 S11) (?v1 S11) (?v2 S11) (?v3 S11)) (let ((?v_0 (f43 f46 ?v0))) (= (f18 (f43 f46 (f18 ?v_0 ?v1)) (f18 (f43 f46 ?v2) ?v3)) (f18 (f43 f46 (f18 ?v_0 ?v2)) (f18 (f43 f46 ?v1) ?v3))))))
(assert (forall ((?v0 S4) (?v1 S4) (?v2 S4) (?v3 S4)) (let ((?v_0 (f6 f48 ?v0))) (= (f5 (f6 f48 (f5 ?v_0 ?v1)) (f5 (f6 f48 ?v2) ?v3)) (f5 (f6 f48 (f5 ?v_0 ?v2)) (f5 (f6 f48 ?v1) ?v3))))))
(assert (forall ((?v0 S2) (?v1 S2) (?v2 S2) (?v3 S2)) (let ((?v_0 (f14 f27 ?v0))) (= (f13 (f14 f27 (f13 ?v_0 ?v1)) (f13 (f14 f27 ?v2) ?v3)) (f13 (f14 f27 (f13 ?v_0 ?v2)) (f13 (f14 f27 ?v1) ?v3))))))
(assert (forall ((?v0 S11) (?v1 S11) (?v2 S11)) (let ((?v_0 (f43 f46 ?v0))) (= (f18 (f43 f46 (f18 ?v_0 ?v1)) ?v2) (f18 (f43 f46 (f18 ?v_0 ?v2)) ?v1)))))
(assert (forall ((?v0 S4) (?v1 S4) (?v2 S4)) (let ((?v_0 (f6 f48 ?v0))) (= (f5 (f6 f48 (f5 ?v_0 ?v1)) ?v2) (f5 (f6 f48 (f5 ?v_0 ?v2)) ?v1)))))
(assert (forall ((?v0 S2) (?v1 S2) (?v2 S2)) (let ((?v_0 (f14 f27 ?v0))) (= (f13 (f14 f27 (f13 ?v_0 ?v1)) ?v2) (f13 (f14 f27 (f13 ?v_0 ?v2)) ?v1)))))
(assert (forall ((?v0 S11) (?v1 S11) (?v2 S11)) (let ((?v_0 (f43 f46 ?v0))) (= (f18 (f43 f46 (f18 ?v_0 ?v1)) ?v2) (f18 ?v_0 (f18 (f43 f46 ?v1) ?v2))))))
(assert (forall ((?v0 S4) (?v1 S4) (?v2 S4)) (let ((?v_0 (f6 f48 ?v0))) (= (f5 (f6 f48 (f5 ?v_0 ?v1)) ?v2) (f5 ?v_0 (f5 (f6 f48 ?v1) ?v2))))))
(assert (forall ((?v0 S2) (?v1 S2) (?v2 S2)) (let ((?v_0 (f14 f27 ?v0))) (= (f13 (f14 f27 (f13 ?v_0 ?v1)) ?v2) (f13 ?v_0 (f13 (f14 f27 ?v1) ?v2))))))
(assert (forall ((?v0 S11) (?v1 S11) (?v2 S11)) (let ((?v_0 (f43 f46 ?v0))) (= (f18 ?v_0 (f18 (f43 f46 ?v1) ?v2)) (f18 (f43 f46 (f18 ?v_0 ?v1)) ?v2)))))
(assert (forall ((?v0 S4) (?v1 S4) (?v2 S4)) (let ((?v_0 (f6 f48 ?v0))) (= (f5 ?v_0 (f5 (f6 f48 ?v1) ?v2)) (f5 (f6 f48 (f5 ?v_0 ?v1)) ?v2)))))
(assert (forall ((?v0 S2) (?v1 S2) (?v2 S2)) (let ((?v_0 (f14 f27 ?v0))) (= (f13 ?v_0 (f13 (f14 f27 ?v1) ?v2)) (f13 (f14 f27 (f13 ?v_0 ?v1)) ?v2)))))
(assert (forall ((?v0 S11) (?v1 S11) (?v2 S11)) (let ((?v_1 (f43 f46 ?v0)) (?v_0 (f43 f46 ?v1))) (= (f18 ?v_1 (f18 ?v_0 ?v2)) (f18 ?v_0 (f18 ?v_1 ?v2))))))
(assert (forall ((?v0 S4) (?v1 S4) (?v2 S4)) (let ((?v_1 (f6 f48 ?v0)) (?v_0 (f6 f48 ?v1))) (= (f5 ?v_1 (f5 ?v_0 ?v2)) (f5 ?v_0 (f5 ?v_1 ?v2))))))
(assert (forall ((?v0 S2) (?v1 S2) (?v2 S2)) (let ((?v_1 (f14 f27 ?v0)) (?v_0 (f14 f27 ?v1))) (= (f13 ?v_1 (f13 ?v_0 ?v2)) (f13 ?v_0 (f13 ?v_1 ?v2))))))
(assert (forall ((?v0 S11) (?v1 S11)) (= (f18 (f43 f46 ?v0) ?v1) (f18 (f43 f46 ?v1) ?v0))))
(assert (forall ((?v0 S4) (?v1 S4)) (= (f5 (f6 f48 ?v0) ?v1) (f5 (f6 f48 ?v1) ?v0))))
(assert (forall ((?v0 S2) (?v1 S2)) (= (f13 (f14 f27 ?v0) ?v1) (f13 (f14 f27 ?v1) ?v0))))
(assert (forall ((?v0 S2)) (= (f13 (f14 f15 ?v0) f36) f36)))
(assert (forall ((?v0 S11)) (= (f18 (f43 f44 ?v0) f51) f51)))
(assert (forall ((?v0 S4)) (= (f5 (f6 f8 ?v0) f52) f52)))
(assert (forall ((?v0 S2)) (= (f13 (f14 f15 f36) ?v0) f36)))
(assert (forall ((?v0 S11)) (= (f18 (f43 f44 f51) ?v0) f51)))
(assert (forall ((?v0 S4)) (= (f5 (f6 f8 f52) ?v0) f52)))
(assert (forall ((?v0 S11) (?v1 S11)) (= (= ?v0 (f18 (f43 f46 ?v0) ?v1)) (= ?v1 f51))))
(assert (forall ((?v0 S4) (?v1 S4)) (= (= ?v0 (f5 (f6 f48 ?v0) ?v1)) (= ?v1 f52))))
(assert (forall ((?v0 S2) (?v1 S2)) (= (= ?v0 (f13 (f14 f27 ?v0) ?v1)) (= ?v1 f36))))
(assert (forall ((?v0 S11)) (= (f18 (f43 f46 ?v0) f51) ?v0)))
(assert (forall ((?v0 S4)) (= (f5 (f6 f48 ?v0) f52) ?v0)))
(assert (forall ((?v0 S2)) (= (f13 (f14 f27 ?v0) f36) ?v0)))
(assert (forall ((?v0 S11)) (= (f18 (f43 f46 f51) ?v0) ?v0)))
(assert (forall ((?v0 S4)) (= (f5 (f6 f48 f52) ?v0) ?v0)))
(assert (forall ((?v0 S2)) (= (f13 (f14 f27 f36) ?v0) ?v0)))
(assert (forall ((?v0 S11) (?v1 S11) (?v2 S11) (?v3 S11)) (let ((?v_0 (f43 f44 ?v0)) (?v_1 (f43 f44 ?v2))) (= (= (f18 (f43 f46 (f18 ?v_0 ?v1)) (f18 ?v_1 ?v3)) (f18 (f43 f46 (f18 ?v_0 ?v3)) (f18 ?v_1 ?v1))) (or (= ?v0 ?v2) (= ?v1 ?v3))))))
(assert (forall ((?v0 S4) (?v1 S4) (?v2 S4) (?v3 S4)) (let ((?v_0 (f6 f8 ?v0)) (?v_1 (f6 f8 ?v2))) (= (= (f5 (f6 f48 (f5 ?v_0 ?v1)) (f5 ?v_1 ?v3)) (f5 (f6 f48 (f5 ?v_0 ?v3)) (f5 ?v_1 ?v1))) (or (= ?v0 ?v2) (= ?v1 ?v3))))))
(assert (forall ((?v0 S2) (?v1 S2) (?v2 S2) (?v3 S2)) (let ((?v_0 (f14 f15 ?v0)) (?v_1 (f14 f15 ?v2))) (= (= (f13 (f14 f27 (f13 ?v_0 ?v1)) (f13 ?v_1 ?v3)) (f13 (f14 f27 (f13 ?v_0 ?v3)) (f13 ?v_1 ?v1))) (or (= ?v0 ?v2) (= ?v1 ?v3))))))
(assert (forall ((?v0 S11) (?v1 S11) (?v2 S11)) (= (f18 (f43 f46 (f18 (f43 f44 ?v0) ?v1)) (f18 (f43 f44 ?v2) ?v1)) (f18 (f43 f44 (f18 (f43 f46 ?v0) ?v2)) ?v1))))
(assert (forall ((?v0 S4) (?v1 S4) (?v2 S4)) (= (f5 (f6 f48 (f5 (f6 f8 ?v0) ?v1)) (f5 (f6 f8 ?v2) ?v1)) (f5 (f6 f8 (f5 (f6 f48 ?v0) ?v2)) ?v1))))
(assert (forall ((?v0 S2) (?v1 S2) (?v2 S2)) (= (f13 (f14 f27 (f13 (f14 f15 ?v0) ?v1)) (f13 (f14 f15 ?v2) ?v1)) (f13 (f14 f15 (f13 (f14 f27 ?v0) ?v2)) ?v1))))
(assert (forall ((?v0 S11) (?v1 S11) (?v2 S11)) (= (f18 (f43 f44 (f18 (f43 f46 ?v0) ?v1)) ?v2) (f18 (f43 f46 (f18 (f43 f44 ?v0) ?v2)) (f18 (f43 f44 ?v1) ?v2)))))
(assert (forall ((?v0 S4) (?v1 S4) (?v2 S4)) (= (f5 (f6 f8 (f5 (f6 f48 ?v0) ?v1)) ?v2) (f5 (f6 f48 (f5 (f6 f8 ?v0) ?v2)) (f5 (f6 f8 ?v1) ?v2)))))
(assert (forall ((?v0 S2) (?v1 S2) (?v2 S2)) (= (f13 (f14 f15 (f13 (f14 f27 ?v0) ?v1)) ?v2) (f13 (f14 f27 (f13 (f14 f15 ?v0) ?v2)) (f13 (f14 f15 ?v1) ?v2)))))
(assert (forall ((?v0 S11) (?v1 S11) (?v2 S11) (?v3 S11)) (let ((?v_0 (f43 f44 ?v0)) (?v_1 (f43 f44 ?v1))) (= (and (not (= ?v0 ?v1)) (not (= ?v2 ?v3))) (not (= (f18 (f43 f46 (f18 ?v_0 ?v2)) (f18 ?v_1 ?v3)) (f18 (f43 f46 (f18 ?v_0 ?v3)) (f18 ?v_1 ?v2))))))))
(assert (forall ((?v0 S4) (?v1 S4) (?v2 S4) (?v3 S4)) (let ((?v_0 (f6 f8 ?v0)) (?v_1 (f6 f8 ?v1))) (= (and (not (= ?v0 ?v1)) (not (= ?v2 ?v3))) (not (= (f5 (f6 f48 (f5 ?v_0 ?v2)) (f5 ?v_1 ?v3)) (f5 (f6 f48 (f5 ?v_0 ?v3)) (f5 ?v_1 ?v2))))))))
(assert (forall ((?v0 S2) (?v1 S2) (?v2 S2) (?v3 S2)) (let ((?v_0 (f14 f15 ?v0)) (?v_1 (f14 f15 ?v1))) (= (and (not (= ?v0 ?v1)) (not (= ?v2 ?v3))) (not (= (f13 (f14 f27 (f13 ?v_0 ?v2)) (f13 ?v_1 ?v3)) (f13 (f14 f27 (f13 ?v_0 ?v3)) (f13 ?v_1 ?v2))))))))
(assert (forall ((?v0 S11) (?v1 S11) (?v2 S11)) (let ((?v_0 (f43 f44 ?v0))) (= (f18 ?v_0 (f18 (f43 f46 ?v1) ?v2)) (f18 (f43 f46 (f18 ?v_0 ?v1)) (f18 ?v_0 ?v2))))))
(assert (forall ((?v0 S4) (?v1 S4) (?v2 S4)) (let ((?v_0 (f6 f8 ?v0))) (= (f5 ?v_0 (f5 (f6 f48 ?v1) ?v2)) (f5 (f6 f48 (f5 ?v_0 ?v1)) (f5 ?v_0 ?v2))))))
(assert (forall ((?v0 S2) (?v1 S2) (?v2 S2)) (let ((?v_0 (f14 f15 ?v0))) (= (f13 ?v_0 (f13 (f14 f27 ?v1) ?v2)) (f13 (f14 f27 (f13 ?v_0 ?v1)) (f13 ?v_0 ?v2))))))
(assert (forall ((?v0 S2)) (= (f13 (f14 f15 ?v0) f53) ?v0)))
(assert (forall ((?v0 S4)) (= (f5 (f6 f8 ?v0) f11) ?v0)))
(assert (forall ((?v0 S11)) (= (f18 (f43 f44 ?v0) f54) ?v0)))
(assert (forall ((?v0 S2)) (= (f13 (f14 f15 f53) ?v0) ?v0)))
(assert (forall ((?v0 S4)) (= (f5 (f6 f8 f11) ?v0) ?v0)))
(assert (forall ((?v0 S11)) (= (f18 (f43 f44 f54) ?v0) ?v0)))
(assert (forall ((?v0 S11) (?v1 S11) (?v2 S2)) (= (f40 (f41 f42 (f18 (f43 f44 ?v0) ?v1)) ?v2) (f18 (f43 f44 (f40 (f41 f42 ?v0) ?v2)) (f40 (f41 f42 ?v1) ?v2)))))
(assert (forall ((?v0 S2) (?v1 S2) (?v2 S2)) (= (f13 (f14 f45 (f13 (f14 f15 ?v0) ?v1)) ?v2) (f13 (f14 f15 (f13 (f14 f45 ?v0) ?v2)) (f13 (f14 f45 ?v1) ?v2)))))
(assert (forall ((?v0 S4) (?v1 S4) (?v2 S2)) (= (f3 (f9 f10 (f5 (f6 f8 ?v0) ?v1)) ?v2) (f5 (f6 f8 (f3 (f9 f10 ?v0) ?v2)) (f3 (f9 f10 ?v1) ?v2)))))
(assert (forall ((?v0 S11) (?v1 S2) (?v2 S2)) (let ((?v_0 (f41 f42 ?v0))) (= (f40 (f41 f42 (f40 ?v_0 ?v1)) ?v2) (f40 ?v_0 (f13 (f14 f15 ?v1) ?v2))))))
(assert (forall ((?v0 S2) (?v1 S2) (?v2 S2)) (let ((?v_0 (f14 f45 ?v0))) (= (f13 (f14 f45 (f13 ?v_0 ?v1)) ?v2) (f13 ?v_0 (f13 (f14 f15 ?v1) ?v2))))))
(assert (forall ((?v0 S4) (?v1 S2) (?v2 S2)) (let ((?v_0 (f9 f10 ?v0))) (= (f3 (f9 f10 (f3 ?v_0 ?v1)) ?v2) (f3 ?v_0 (f13 (f14 f15 ?v1) ?v2))))))
(assert (forall ((?v0 S11) (?v1 S11) (?v2 S11) (?v3 S11) (?v4 S11)) (let ((?v_0 (f43 f44 ?v0))) (=> (not (= ?v0 f51)) (=> (and (= ?v1 ?v2) (not (= ?v3 ?v4))) (not (= (f18 (f43 f46 ?v1) (f18 ?v_0 ?v3)) (f18 (f43 f46 ?v2) (f18 ?v_0 ?v4)))))))))
(assert (forall ((?v0 S4) (?v1 S4) (?v2 S4) (?v3 S4) (?v4 S4)) (let ((?v_0 (f6 f8 ?v0))) (=> (not (= ?v0 f52)) (=> (and (= ?v1 ?v2) (not (= ?v3 ?v4))) (not (= (f5 (f6 f48 ?v1) (f5 ?v_0 ?v3)) (f5 (f6 f48 ?v2) (f5 ?v_0 ?v4)))))))))
(assert (forall ((?v0 S2) (?v1 S2) (?v2 S2) (?v3 S2) (?v4 S2)) (let ((?v_0 (f14 f15 ?v0))) (=> (not (= ?v0 f36)) (=> (and (= ?v1 ?v2) (not (= ?v3 ?v4))) (not (= (f13 (f14 f27 ?v1) (f13 ?v_0 ?v3)) (f13 (f14 f27 ?v2) (f13 ?v_0 ?v4)))))))))
(assert (forall ((?v0 S11) (?v1 S11)) (= (= (f18 (f43 f46 (f18 (f43 f44 ?v0) ?v0)) (f18 (f43 f44 ?v1) ?v1)) f51) (and (= ?v0 f51) (= ?v1 f51)))))
(assert (forall ((?v0 S2) (?v1 S2)) (= (f13 (f14 f27 (f13 (f14 f15 ?v0) ?v1)) ?v1) (f13 (f14 f15 (f13 (f14 f27 ?v0) f53)) ?v1))))
(assert (forall ((?v0 S4) (?v1 S4)) (= (f5 (f6 f48 (f5 (f6 f8 ?v0) ?v1)) ?v1) (f5 (f6 f8 (f5 (f6 f48 ?v0) f11)) ?v1))))
(assert (forall ((?v0 S11) (?v1 S11)) (= (f18 (f43 f46 (f18 (f43 f44 ?v0) ?v1)) ?v1) (f18 (f43 f44 (f18 (f43 f46 ?v0) f54)) ?v1))))
(assert (forall ((?v0 S2) (?v1 S2)) (= (f13 (f14 f27 ?v0) (f13 (f14 f15 ?v1) ?v0)) (f13 (f14 f15 (f13 (f14 f27 ?v1) f53)) ?v0))))
(assert (forall ((?v0 S4) (?v1 S4)) (= (f5 (f6 f48 ?v0) (f5 (f6 f8 ?v1) ?v0)) (f5 (f6 f8 (f5 (f6 f48 ?v1) f11)) ?v0))))
(assert (forall ((?v0 S11) (?v1 S11)) (= (f18 (f43 f46 ?v0) (f18 (f43 f44 ?v1) ?v0)) (f18 (f43 f44 (f18 (f43 f46 ?v1) f54)) ?v0))))
(assert (forall ((?v0 S2)) (= (f13 (f14 f27 ?v0) ?v0) (f13 (f14 f15 (f13 (f14 f27 f53) f53)) ?v0))))
(assert (forall ((?v0 S4)) (= (f5 (f6 f48 ?v0) ?v0) (f5 (f6 f8 (f5 (f6 f48 f11) f11)) ?v0))))
(assert (forall ((?v0 S11)) (= (f18 (f43 f46 ?v0) ?v0) (f18 (f43 f44 (f18 (f43 f46 f54) f54)) ?v0))))
(assert (= f51 (f18 f47 f21)))
(assert (= f52 (f49 f50 f21)))
(assert (forall ((?v0 S11) (?v1 S2)) (let ((?v_0 (f41 f42 ?v0))) (= (f18 (f43 f44 (f40 ?v_0 ?v1)) ?v0) (f40 ?v_0 (f13 f25 ?v1))))))
(assert (forall ((?v0 S2) (?v1 S2)) (let ((?v_0 (f14 f45 ?v0))) (= (f13 (f14 f15 (f13 ?v_0 ?v1)) ?v0) (f13 ?v_0 (f13 f25 ?v1))))))
(assert (forall ((?v0 S4) (?v1 S2)) (let ((?v_0 (f9 f10 ?v0))) (= (f5 (f6 f8 (f3 ?v_0 ?v1)) ?v0) (f3 ?v_0 (f13 f25 ?v1))))))
(assert (forall ((?v0 S11) (?v1 S2)) (let ((?v_0 (f41 f42 ?v0))) (= (f18 (f43 f44 ?v0) (f40 ?v_0 ?v1)) (f40 ?v_0 (f13 f25 ?v1))))))
(assert (forall ((?v0 S2) (?v1 S2)) (let ((?v_0 (f14 f45 ?v0))) (= (f13 (f14 f15 ?v0) (f13 ?v_0 ?v1)) (f13 ?v_0 (f13 f25 ?v1))))))
(assert (forall ((?v0 S4) (?v1 S2)) (let ((?v_0 (f9 f10 ?v0))) (= (f5 (f6 f8 ?v0) (f3 ?v_0 ?v1)) (f3 ?v_0 (f13 f25 ?v1))))))
(assert (forall ((?v0 S11) (?v1 S2)) (let ((?v_0 (f41 f42 ?v0))) (= (f40 ?v_0 (f13 f25 ?v1)) (f18 (f43 f44 ?v0) (f40 ?v_0 ?v1))))))
(assert (forall ((?v0 S2) (?v1 S2)) (let ((?v_0 (f14 f45 ?v0))) (= (f13 ?v_0 (f13 f25 ?v1)) (f13 (f14 f15 ?v0) (f13 ?v_0 ?v1))))))
(assert (forall ((?v0 S4) (?v1 S2)) (let ((?v_0 (f9 f10 ?v0))) (= (f3 ?v_0 (f13 f25 ?v1)) (f5 (f6 f8 ?v0) (f3 ?v_0 ?v1))))))
(assert (forall ((?v0 S2)) (= (f13 (f14 f45 ?v0) f36) f53)))
(assert (forall ((?v0 S4)) (= (f3 (f9 f10 ?v0) f36) f11)))
(assert (forall ((?v0 S11)) (= (f40 (f41 f42 ?v0) f36) f54)))
(assert (forall ((?v0 S11) (?v1 S2) (?v2 S2)) (let ((?v_0 (f41 f42 ?v0))) (= (f18 (f43 f44 (f40 ?v_0 ?v1)) (f40 ?v_0 ?v2)) (f40 ?v_0 (f13 (f14 f27 ?v1) ?v2))))))
(assert (forall ((?v0 S2) (?v1 S2) (?v2 S2)) (let ((?v_0 (f14 f45 ?v0))) (= (f13 (f14 f15 (f13 ?v_0 ?v1)) (f13 ?v_0 ?v2)) (f13 ?v_0 (f13 (f14 f27 ?v1) ?v2))))))
(assert (forall ((?v0 S4) (?v1 S2) (?v2 S2)) (let ((?v_0 (f9 f10 ?v0))) (= (f5 (f6 f8 (f3 ?v_0 ?v1)) (f3 ?v_0 ?v2)) (f3 ?v_0 (f13 (f14 f27 ?v1) ?v2))))))
(assert (= (f16 f17 f21) f36))
(assert (= f36 (f16 f17 f21)))
(assert (= f11 (f49 f50 (f18 f20 f21))))
(assert (= f54 (f18 f47 (f18 f20 f21))))
(assert (forall ((?v0 S11)) (= (f40 (f41 f42 ?v0) (f16 f17 (f18 f20 (f18 f20 f21)))) (f18 (f43 f44 (f18 (f43 f44 ?v0) ?v0)) ?v0))))
(assert (forall ((?v0 S2)) (= (f13 (f14 f45 ?v0) (f16 f17 (f18 f20 (f18 f20 f21)))) (f13 (f14 f15 (f13 (f14 f15 ?v0) ?v0)) ?v0))))
(assert (forall ((?v0 S4)) (= (f3 (f9 f10 ?v0) (f16 f17 (f18 f20 (f18 f20 f21)))) (f5 (f6 f8 (f5 (f6 f8 ?v0) ?v0)) ?v0))))
(assert (= (f16 f17 (f18 f20 (f18 f20 f21))) (f13 f25 (f13 f25 (f13 f25 f36)))))
(assert (= (f16 f17 (f18 f20 f21)) (f13 f25 f36)))
(assert (forall ((?v0 S2)) (= (f13 f25 (f13 f25 (f13 f25 ?v0))) (f13 (f14 f27 (f16 f17 (f18 f20 (f18 f20 f21)))) ?v0))))
(assert (forall ((?v0 S11)) (= (= (f40 (f41 f42 ?v0) (f16 f17 (f18 f19 (f18 f20 f21)))) f51) (= ?v0 f51))))
(assert (forall ((?v0 S4)) (= (= (f3 (f9 f10 ?v0) (f16 f17 (f18 f19 (f18 f20 f21)))) f52) (= ?v0 f52))))
(check-sat)
(exit)
